    1      40.00      50.00       0.00       0.00    1236.00       0.00 
    2      45.00      68.00      10.00     912.00     967.00      90.00 
    3      45.00      70.00      30.00     825.00     870.00      90.00 
    4      42.00      66.00      10.00      65.00     146.00      90.00 
    5      42.00      68.00      10.00     727.00     782.00      90.00 
    6      42.00      65.00      10.00      15.00      67.00      90.00 
    7      40.00      69.00      20.00     621.00     702.00      90.00 
    8      40.00      66.00      20.00     170.00     225.00      90.00 
    9      38.00      68.00      20.00     255.00     324.00      90.00 
   10      38.00      70.00      10.00     534.00     605.00      90.00 
   11      35.00      66.00      10.00     357.00     410.00      90.00 
   12      35.00      69.00      10.00     448.00     505.00      90.00 
   13      25.00      85.00      20.00     652.00     721.00      90.00 
   14      22.00      75.00      30.00      30.00      92.00      90.00 
   15      22.00      85.00      10.00     567.00     620.00      90.00 
   16      20.00      80.00      40.00     384.00     429.00      90.00 
   17      20.00      85.00      40.00     475.00     528.00      90.00 
   18      18.00      75.00      20.00      99.00     148.00      90.00 
   19      15.00      75.00      20.00     179.00     254.00      90.00 
   20      15.00      80.00      10.00     278.00     345.00      90.00 
   21      30.00      50.00      10.00      10.00      73.00      90.00 
   22      30.00      52.00      20.00     914.00     965.00      90.00 
   23      28.00      52.00      20.00     812.00     883.00      90.00 
   24      28.00      55.00      10.00     732.00     777.00      90.00 
   25      25.00      50.00      10.00      65.00     144.00      90.00 
   26      25.00      52.00      40.00     169.00     224.00      90.00 
   27      25.00      55.00      10.00     622.00     701.00      90.00 
   28      23.00      52.00      10.00     261.00     316.00      90.00 
   29      23.00      55.00      20.00     546.00     593.00      90.00 
   30      20.00      50.00      10.00     358.00     405.00      90.00 
   31      20.00      55.00      10.00     449.00     504.00      90.00 
   32      10.00      35.00      20.00     200.00     237.00      90.00 
   33      10.00      40.00      30.00      31.00     100.00      90.00 
   34       8.00      40.00      40.00      87.00     158.00      90.00 
   35       8.00      45.00      20.00     751.00     816.00      90.00 
   36       5.00      35.00      10.00     283.00     344.00      90.00 
   37       5.00      45.00      10.00     665.00     716.00      90.00 
   38       2.00      40.00      20.00     383.00     434.00      90.00 
   39       0.00      40.00      30.00     479.00     522.00      90.00 
   40       0.00      45.00      20.00     567.00     624.00      90.00 